(set-info :smt-lib-version 2.6)
(set-logic QF_S)
(set-info :source |
Generated by: Shaoke Cui
Generated on: 2025-04-10
Application: Using String Solvers to solve string matching problems
Target solver: Z3, Z3alpha, Z3-noodler
Benchmarks for string matching problem with wildcards, which needs to determine whether two strings containing two wildcards can match.
Use re.allchar and (re.* re.allchar) to represent wildcards.
Determine whether the two strings match by judging whether the result of re.inter is re.none.
|)
(set-info :license "https://creativecommons.org/licenses/by/4.0/")
(set-info :category "crafted")
(set-info :status unknown)
(assert (= re.none (re.inter  (re.++ (str.to_re "oawxghulnyykbuheewun") (re.* re.allchar) (str.to_re "ayae") re.allchar (str.to_re "pxkthapzwz") re.allchar (str.to_re "nlyfqxysqyojs") re.allchar (str.to_re "cljzrib") re.allchar (str.to_re "ty") re.allchar (str.to_re "ze") (re.* re.allchar) (str.to_re "mdfyufrqcovlwbpq") (re.* re.allchar) (str.to_re "zmowhvjchdqeeegocilcwvjlrmnxnlhgfanfywhqxnixmmahegvfya") re.allchar (str.to_re "zhikkvjyjbxletgebrtilxbcbx") (re.* re.allchar) re.allchar (str.to_re "b") re.allchar (str.to_re "fajw") (re.* re.allchar) (str.to_re "uisscdioufhiqhqlqlugmemydblovlvyfdbxemzjsuauyifnpxa") re.allchar (str.to_re "kho") re.allchar (str.to_re "kasfmilooetdydhpbzhuwl") (re.* re.allchar) (str.to_re "utrhny") re.allchar (str.to_re "oywdtfknhillmmqlhye") re.allchar (str.to_re "u") (re.* re.allchar) re.allchar (str.to_re "wusdgawgzozkbmsmnpoxrlirpirxevhokmfufsuojcqzonicitqfeym") (re.* re.allchar) (str.to_re "uscnrripwpsjqlxkzpedysbecigd") (re.* re.allchar) (str.to_re "r") re.allchar (str.to_re "osckguedp") re.allchar (str.to_re "aorzirsrtjqfwonoe") (re.* re.allchar) (str.to_re "kvojkeobdqorweqyyw") (re.* re.allchar) (str.to_re "ghemqywlaxzzpm") re.allchar (str.to_re "v") (re.* re.allchar) (str.to_re "vmjmed") (re.* re.allchar) (str.to_re "ivziopyqmgvmaxcibuw") (re.* re.allchar) (str.to_re "j") (re.* re.allchar) (str.to_re "m") (re.* re.allchar) (str.to_re "o") (re.* re.allchar) (str.to_re "wn") re.allchar (str.to_re "saodgkghrgnnezevzhrgwkfnp") re.allchar (str.to_re "niwsa") (re.* re.allchar) (str.to_re "exv") (re.* re.allchar) (str.to_re "vsoluxzca") (re.* re.allchar) (str.to_re "cmiqkoh") (re.* re.allchar) re.allchar (str.to_re "bqayxouahwyltie") (re.* re.allchar) (str.to_re "hpmswavupvrmaly") (re.* re.allchar) (re.* re.allchar) (str.to_re "w") re.allchar (str.to_re "uqc") re.allchar (str.to_re "avj") (re.* re.allchar) (str.to_re "blcq") (re.* re.allchar) (str.to_re "z") re.allchar (str.to_re "ngugv") (re.* re.allchar) (str.to_re "swangx") re.allchar (str.to_re "hqkppnpenrrgskdfadvzyvlibbrtnkbyjgyxq") (re.* re.allchar) re.allchar (str.to_re "mmj") (re.* re.allchar) (str.to_re "xumhfxp") re.allchar (re.* re.allchar) (str.to_re "cwtvt") (re.* re.allchar) (str.to_re "njigzleh") re.allchar (str.to_re "yyttykjf") re.allchar (str.to_re "qjherpufh") re.allchar (str.to_re "v") re.allchar (str.to_re "mops") (re.* re.allchar) )   (re.++ (str.to_re "pehdjbjodcbnehr") re.allchar (str.to_re "wc") (re.* re.allchar) (str.to_re "nphv") re.allchar (str.to_re "isyhpgbuemxcpavox") re.allchar (str.to_re "koznzskljkatjrxaxdohrzxazbviwgzhnyrwgrtcdvetnzfupfkbtcfnvs") re.allchar (str.to_re "bfvvmonsbx") (re.* re.allchar) (str.to_re "imxzeipipwrmbpyoev") re.allchar (str.to_re "bxepekrhgqucifbyimzgkttmfpysvjkcebouzivswztfuvbzcziivptdf") (re.* re.allchar) (str.to_re "mufkzcxblu") re.allchar (str.to_re "gwgvstnvygwkmxkqxion") (re.* re.allchar) (str.to_re "tiqkouqnqm") re.allchar (str.to_re "xawxlpadnonynekbqhozobwvbfnukpdqdbvcktuhnsyroeehcbvg") (re.* re.allchar) (str.to_re "nirnt") (re.* re.allchar) (str.to_re "sb") (re.* re.allchar) (str.to_re "ulxl") re.allchar (str.to_re "jgmxnymyg") (re.* re.allchar) (str.to_re "dlmxkkdcwwcv") (re.* re.allchar) (str.to_re "bluxkdsbukwlietemzbpdeungjvzrmgvvihsrdnfbxexsoebbagrviainamnjm") re.allchar (str.to_re "chf") re.allchar (str.to_re "q") (re.* re.allchar) (str.to_re "zouwaklliacbnrgljbaxlijlkpawsderuwo") re.allchar (str.to_re "mbqurozwk") (re.* re.allchar) (str.to_re "z") re.allchar (str.to_re "bmckariwwgnfdgwh") (re.* re.allchar) (str.to_re "oqjvxzmq") (re.* re.allchar) (str.to_re "qdrsrvgtztyi") (re.* re.allchar) (re.* re.allchar) (re.* re.allchar) (str.to_re "ffpltufcoliuh") (re.* re.allchar) (str.to_re "hifezltztmordfdqucwbg") re.allchar (str.to_re "ewtgctkbmkrlm") re.allchar (str.to_re "mwuy") (re.* re.allchar) re.allchar (str.to_re "zciqdsgskesxajlvcccwsvxoy") (re.* re.allchar) (str.to_re "huzweqvbgpcciwwkueqbmrvhtyurvmcanjtyqlgyqfruorlesklvjldixwsra") (re.* re.allchar) (str.to_re "bpq") re.allchar (str.to_re "jlyphubthlce") )  )))
(check-sat)
(exit)
